300
[30,31,32,34,35,36,37,38,39,40,42,43,44,46,47,49,50,52,53,55,56,57,58,59,60,61,62,64,67,68,70,71,72,73,74,75,76,79,80,82,83,84,86,87,88,89,90,91,92,95,98,100,101,102,103,104,106,107,108,109,110,112,113,114,116,117,119,120,121,122,123,124,125,126,127,129,130,134,135,136,137,139,140,141,142,143,144,145,146,147,149,150,151,152,153,154,155,156,159,161,163,164,166,167,168,169,171,172,173,174,175,176,177,178,179,180,181,182,183,184,186,187,189,191,192,194,195,196,197,200,201,202,203,204,205,206,207,208,209]
[2,4,2,3,1,1,1,3,1,1,2,1,1,3,3,1,2,4,4,1,1,1,4,2,1,2,4,1,3,4,2,2,3,2,4,1,3,2,2,1,3,2,1,1,3,4,5,3,1,2,3,2,1,2,4,1,3,2,3,1,1,2,2,2,1,4,1,2,2,3,3,3,1,1,1,2,1,2,2,1,4,1,1,3,2,1,2,3,1,1,2,4,3,2,2,3,1,5,3,3,1,2,2,2,1,1,2,1,2,4,2,1,2,2,2,3,2,2,3,2,2,2,2,6,1,1,2,2,2,1,1,2,3,3,3,4,2,4,1]
